%nprocshared=16
%mem=48GB
%chk=C:\Users\COMPUTER\Downloads\NAM\N-acetyl-beta-muramic acid.chk
# opt=(calcfc,tight) freq=raman b3lyp/6-311++g(d,p)
empiricaldispersion=gd3bj geom=connectivity int=ultrafine scf=(tight,xqc)

β-MurNAc Raman simulation

0 1
 O                 -2.78560000   -0.68990000   -0.08380000
 O                  0.99790000    0.80120000   -0.63400000
 O                 -1.13560000    2.58280000    0.12740000
 O                 -1.98520000   -2.87130000    0.06830000
 O                 -5.02420000    0.83400000    0.36410000
 O                  1.49310000   -2.86820000   -1.41240000
 O                  3.82040000    2.36280000    0.94870000
 O                  3.54720000    0.30170000    0.03800000
 N                  0.66940000   -1.86630000    0.52040000
 C                 -0.14370000    0.40570000    0.12930000
 C                 -0.38680000   -1.08980000   -0.09520000
 C                 -1.34660000    1.24310000   -0.31040000
 C                 -2.64120000    0.68300000    0.28460000
 C                 -1.75340000   -1.51640000    0.45180000
 C                 -3.87650000    1.41920000   -0.22390000
 C                  1.69060000    1.86900000   -0.00780000
 C                  1.51810000   -2.68950000   -0.19750000
 C                  1.70890000    3.04430000   -0.96930000
 C                  3.09430000    1.40390000    0.31840000
 C                  2.53890000   -3.35930000    0.68280000
 H                  0.04460000    0.55510000    1.20280000
 H                 -0.36530000   -1.28450000   -1.17570000
 H                 -1.39290000    1.25160000   -1.40700000
 H                 -2.63080000    0.75380000    1.38070000
 H                 -1.77350000   -1.46890000    1.54830000
 H                 -3.97590000    1.33360000   -1.31100000
 H                 -3.86040000    2.47820000    0.04700000
 H                  0.78760000   -1.79220000    1.52710000
 H                  1.23480000    2.17880000    0.94060000
 H                 -1.79420000    3.14590000   -0.31240000
 H                 -2.61470000   -3.24470000    0.70820000
 H                  2.31090000    2.80670000   -1.85460000
 H                  2.14580000    3.93310000   -0.50270000
 H                  0.71140000    3.29830000   -1.33630000
 H                 -5.03240000   -0.10730000    0.11970000
 H                  3.09110000   -4.10580000    0.10540000
 H                  3.23920000   -2.61190000    1.06590000
 H                  2.04400000   -3.85910000    1.52050000
 H                  4.73160000    2.05910000    1.14860000

 1 13 1.0 14 1.0
 2 10 1.0 16 1.0
 3 12 1.0 30 1.0
 4 14 1.0 31 1.0
 5 15 1.0 35 1.0
 6 17 2.0
 7 19 1.0 39 1.0
 8 19 2.0
 9 11 1.0 17 1.0 28 1.0
 10 11 1.0 12 1.0 21 1.0
 11 14 1.0 22 1.0
 12 13 1.0 23 1.0
 13 15 1.0 24 1.0
 14 25 1.0
 15 26 1.0 27 1.0
 16 18 1.0 19 1.0 29 1.0
 17 20 1.0
 18 32 1.0 33 1.0 34 1.0
 19
 20 36 1.0 37 1.0 38 1.0
 21
 22
 23
 24
 25
 26
 27
 28
 29
 30
 31
 32
 33
 34
 35
 36
 37
 38
 39

