%chk=NAM_alpha.chk
%nprocshared=16
%mem=48GB
# opt=(calcfc,tight) freq=raman b3lyp/6-311++g(d,p) empiricaldispersion=gd3bj int=ultrafine scf=(tight,xqc)

alpha-N-acetylmuramic acid  --  anomeric centre inverted from the optimised beta geometry

0 1
 O     -2.68079400     0.67078700    -0.09490400
 O      1.06946300    -0.75937300     0.87218500
 O     -1.06792200    -2.61519100     0.31731100
 O     -1.43100282     1.07429117    -1.95720623
 O     -4.95587800    -0.86042400    -0.46514700
 O      0.94288100     3.22503200     1.40868400
 O      3.35726900    -2.52875300    -1.28345500
 O      2.63431600    -0.41211000    -1.41676000
 N      0.85944200     1.76066900    -0.34052500
 C     -0.07228200    -0.46023700     0.07865000
 C     -0.30154100     1.05501400     0.15457600
 C     -1.30720600    -1.22224300     0.54867700
 C     -2.53791800    -0.74133800    -0.23333800
 C     -1.57540100     1.40977800    -0.62251200
 C     -3.84317500    -1.34229700     0.26676400
 C      1.88913700    -1.82574500     0.44240500
 C      1.44402000     2.75794100     0.40123600
 C      2.86358300    -2.13082500     1.57829800
 C      2.64602700    -1.47306700    -0.83783200
 C      2.75841100     3.26867500    -0.15861300
 H      0.11507900    -0.74293400    -0.96592800
 H     -0.46172400     1.36037400     1.19203200
 H     -1.44839000    -1.02836400     1.61818100
 H     -2.40564000    -1.00189400    -1.29414300
 H     -1.78701842     2.48558363    -0.49611342
 H     -3.94960300    -1.11845500     1.33791500
 H     -3.83015000    -2.42550900     0.13329400
 H      1.47473300     1.23587700    -0.94922100
 H      1.28548200    -2.71180500     0.22183900
 H     -1.62294700    -3.13584100     0.90468400
 H     -2.17273282     1.31256617    -2.52328823
 H      3.45806400    -1.24516900     1.81166400
 H      3.52799000    -2.95130700     1.30729000
 H      2.29359000    -2.40738200     2.46575300
 H     -4.91268600     0.10281200    -0.43262200
 H      3.45520700     3.41873400     0.66642900
 H      3.19929900     2.59778000    -0.89814800
 H      2.58164900     4.24023500    -0.62704600
 H      3.81580800    -2.25331700    -2.09200800

