39
Optimised geometry, B3LYP-D3BJ/6-311++G(d,p), Gaussian 16
O     -2.680794     0.670787    -0.094904
O      1.069463    -0.759373     0.872185
O     -1.067922    -2.615191     0.317311
O     -1.840721     2.758593    -0.464037
O     -4.955878    -0.860424    -0.465147
O      0.942881     3.225032     1.408684
O      3.357269    -2.528753    -1.283455
O      2.634316    -0.412110    -1.416760
N      0.859442     1.760669    -0.340525
C     -0.072282    -0.460237     0.078650
C     -0.301541     1.055014     0.154576
C     -1.307206    -1.222243     0.548677
C     -2.537918    -0.741338    -0.233338
C     -1.575401     1.409778    -0.622512
C     -3.843175    -1.342297     0.266764
C      1.889137    -1.825745     0.442405
C      1.444020     2.757941     0.401236
C      2.863583    -2.130825     1.578298
C      2.646027    -1.473067    -0.837832
C      2.758411     3.268675    -0.158613
H      0.115079    -0.742934    -0.965928
H     -0.461724     1.360374     1.192032
H     -1.448390    -1.028364     1.618181
H     -2.405640    -1.001894    -1.294143
H     -1.460230     1.142196    -1.687055
H     -3.949603    -1.118455     1.337915
H     -3.830150    -2.425509     0.133294
H      1.474733     1.235877    -0.949221
H      1.285482    -2.711805     0.221839
H     -1.622947    -3.135841     0.904684
H     -2.582451     2.996868    -1.030119
H      3.458064    -1.245169     1.811664
H      3.527990    -2.951307     1.307290
H      2.293590    -2.407382     2.465753
H     -4.912686     0.102812    -0.432622
H      3.455207     3.418734     0.666429
H      3.199299     2.597780    -0.898148
H      2.581649     4.240235    -0.627046
H      3.815808    -2.253317    -2.092008
