%chk=C:\Users\sukes\Downloads\LTA Final\lta.chk
# opt freq=raman b3lyp/6-311++g(d,p) geom=connectivity

137349712

0 1
 O                  3.76713539   -8.77238236    0.00000000
 O                  1.11308016   -9.27535859    0.00000000
 O                  4.28801705   -4.70186762    0.00000000
 O                  2.36562492  -13.43752352    0.00000000
 O                  0.83279776   -7.05980313    0.00000000
 O                  6.80699944   -4.84897190    0.00000000
 O                  6.19684497   -7.34677345    0.00000000
 O                  1.05320418   -3.29972204    0.00000000
 O                  3.16773053  -13.56056141    0.00000000
 O                  7.91834480   -0.87496712    0.00000000
 O                 10.27165239   -1.57222980    0.00000000
 O                 10.23170111   -1.28028076    0.00000000
 O                 11.57048323   -3.51171428    0.00000000
 N                  4.38912571  -11.53515995    0.00000000
 N                 -0.31837041  -13.20158924    0.00000000
 C                  3.14887334  -10.75067207    0.00000000
 C                  3.39022765   -7.38189805    0.00000000
 C                  2.48433815   -9.44187154    0.00000000
 C                  2.28952340  -12.00595906    0.00000000
 C                  0.70460266  -12.14202211    0.00000000
 C                  2.15010912   -6.51526323    0.00000000
 C                  0.40426372  -10.55760757    0.00000000
 C                  4.84076273   -6.89984566    0.00000000
 C                  2.91437755   -5.17543265    0.00000000
 C                  5.51031638   -5.49727171    0.00000000
 C                 -1.03865943  -11.10274476    0.00000000
 C                  1.46056202   -4.66982759    0.00000000
 C                  4.29874930  -13.00512501    0.00000000
 C                  6.61706303   -3.41712829    0.00000000
 C                  7.72389134   -2.31172855    0.00000000
 C                  5.57815004  -13.86809766    0.00000000
 C                  9.24828206   -2.56742005    0.00000000
 C                  9.29327260   -0.44237662    0.00000000
 C                  9.59755011    1.08427129    0.00000000
 C                 10.99363858    1.75080246    0.00000000
 C                 11.53488229   -2.25254342    0.00000000
 C                 11.22845131    3.28063551    0.00000000
 C                 12.85356332   -1.45891414    0.00000000
 C                 12.59479690    3.99329564    0.00000000
 C                 14.26723247   -2.08272147    0.00000000
 C                 15.58705976   -1.27670852    0.00000000
 C                 12.77566799    5.52173158    0.00000000
 C                 17.01715317   -1.85743173    0.00000000
 C                 16.70348727   10.85964705    0.00000000
 C                 15.44452407    9.98283145    0.00000000
 C                 16.64580986   12.39011088    0.00000000
 C                 14.11166627    6.28133288    0.00000000
 C                 15.39278558    8.44971657    0.00000000
 C                 17.84217119   13.34959939    0.00000000
 C                 18.31151342   -1.01629707    0.00000000
 C                 14.09120039    7.63331921    0.00000000
 C                 17.73297997   14.88259184    0.00000000
 C                 19.74501359   -1.58264113    0.00000000
 C                 18.91906076   15.85894648    0.00000000
 H                  4.13351356  -10.33084285    0.00000000
 H                  2.74671972   -8.23884297    0.00000000
 H                  2.79124722   -8.41837967    0.00000000
 H                  3.18977425  -12.57940299    0.00000000
 H                  1.56056868  -12.78268709    0.00000000
 H                  1.74167146   -5.52757331    0.00000000
 H                 -0.53017904  -10.04100157    0.00000000
 H                  5.25186611   -7.89035675    0.00000000
 H                  2.53925918   -4.17100915    0.00000000
 H                  5.97628612   -6.45884467    0.00000000
 H                  5.27935909  -11.07941298    0.00000000
 H                 -0.66455214  -10.10044376    0.00000000
 H                 -2.07275617  -10.83339375    0.00000000
 H                 -0.56181847  -12.06032066    0.00000000
 H                  0.43343648   -4.97523605    0.00000000
 H                  1.11734184   -5.68433411    0.00000000
 H                 -1.28602938  -12.95549811    0.00000000
 H                 -0.04927336  -14.16681332    0.00000000
 H                  1.47731389  -13.80800555    0.00000000
 H                  0.19820356   -6.34549679    0.00000000
 H                  6.77835975   -6.58200623    0.00000000
 H                  5.87617493   -2.64511609    0.00000000
 H                  5.56091532   -3.58142200    0.00000000
 H                  6.95871593   -1.56312496    0.00000000
 H                  0.09282278   -3.25712210    0.00000000
 H                  4.54360675  -14.14502552    0.00000000
 H                  5.95665111  -14.86951955    0.00000000
 H                  6.08136020  -12.92589613    0.00000000
 H                  9.06803355   -3.62176392    0.00000000
 H                 10.00189536   -3.32493767    0.00000000
 H                  9.15337983    2.06073516    0.00000000
 H                  8.54944040    1.28394633    0.00000000
 H                 11.46110653    0.78967813    0.00000000
 H                 12.05167792    1.58012899    0.00000000
 H                 10.74238055    4.23798386    0.00000000
 H                 10.17026279    3.43684513    0.00000000
 H                 13.28576525   -0.48115910    0.00000000
 H                 12.30271137   -0.54063022    0.00000000
 H                 13.10028426    3.05023887    0.00000000
 H                 13.65872402    3.85991361    0.00000000
 H                 13.83540121   -3.06413962    0.00000000
 H                 14.81783672   -2.99999118    0.00000000
 H                 16.00106670   -0.29143430    0.00000000
 H                 15.02007407   -0.37084943    0.00000000
 H                 12.25482289    6.45681504    0.00000000
 H                 11.71208827    5.63590869    0.00000000
 H                 16.62258308   -2.85040191    0.00000000
 H                 17.60120862   -2.75353275    0.00000000
 H                 17.33823987    9.99496447    0.00000000
 H                 17.77607576   10.87615084    0.00000000
 H                 14.84766495   10.87028802    0.00000000
 H                 14.37313012   10.00674501    0.00000000
 H                 15.98476837   13.23101575    0.00000000
 H                 15.57753491   12.33450362    0.00000000
 H                 15.96992769    7.54713768    0.00000000
 H                 16.46018221    8.39989266    0.00000000
 H                 15.03884570    5.75308537    0.00000000
 H                 18.51588485   12.51814559    0.00000000
 H                 18.90935683   13.42010785    0.00000000
 H                 18.70670206   -0.02019100    0.00000000
 H                 17.72784849   -0.11835504    0.00000000
 H                 13.15238952    8.14396510    0.00000000
 H                 17.05334266   15.71061022    0.00000000
 H                 16.66536682   14.80678288    0.00000000
 H                 19.25690329   -2.53243021    0.00000000
 H                 20.78364590   -1.32712907    0.00000000
 H                 19.38304310   -0.57455906    0.00000000
 H                 18.88920117   14.78951648    0.00000000
 H                 19.98634864   15.93925937    0.00000000
 H                 18.15610752   16.60835784    0.00000000

 1 17 1.0 18 1.0
 2 18 1.0 22 1.0
 3 24 1.0 25 1.0
 4 19 1.0 73 1.0
 5 21 1.0 74 1.0
 6 25 1.0 29 1.0
 7 23 1.0 75 1.0
 8 27 1.0 79 1.0
 9 28 2.0
 10 30 1.0 33 1.0
 11 32 1.0 36 1.0
 12 33 2.0
 13 36 2.0
 14 16 1.0 28 1.0 65 1.0
 15 20 1.0 71 1.0 72 1.0
 16 18 1.0 19 1.0 55 1.0
 17 21 1.0 23 1.0 56 1.0
 18 57 1.0
 19 20 1.0 58 1.0
 20 22 1.0 59 1.0
 21 24 1.0 60 1.0
 22 26 1.0 61 1.0
 23 25 1.0 62 1.0
 24 27 1.0 63 1.0
 25 64 1.0
 26 66 1.0 67 1.0 68 1.0
 27 69 1.0 70 1.0
 28 31 1.0
 29 30 1.0 76 1.0 77 1.0
 30 32 1.0 78 1.0
 31 80 1.0 81 1.0 82 1.0
 32 83 1.0 84 1.0
 33 34 1.0
 34 35 1.0 85 1.0 86 1.0
 35 37 1.0 87 1.0 88 1.0
 36 38 1.0
 37 39 1.0 89 1.0 90 1.0
 38 40 1.0 91 1.0 92 1.0
 39 42 1.0 93 1.0 94 1.0
 40 41 1.0 95 1.0 96 1.0
 41 43 1.0 97 1.0 98 1.0
 42 47 1.0 99 1.0 100 1.0
 43 50 1.0 101 1.0 102 1.0
 44 45 1.0 46 1.0 103 1.0 104 1.0
 45 48 1.0 105 1.0 106 1.0
 46 49 1.0 107 1.0 108 1.0
 47 51 2.0 111 1.0
 48 51 1.0 109 1.0 110 1.0
 49 52 1.0 112 1.0 113 1.0
 50 53 1.0 114 1.0 115 1.0
 51 116 1.0
 52 54 1.0 117 1.0 118 1.0
 53 119 1.0 120 1.0 121 1.0
 54 122 1.0 123 1.0 124 1.0
 55
 56
 57
 58
 59
 60
 61
 62
 63
 64
 65
 66
 67
 68
 69
 70
 71
 72
 73
 74
 75
 76
 77
 78
 79
 80
 81
 82
 83
 84
 85
 86
 87
 88
 89
 90
 91
 92
 93
 94
 95
 96
 97
 98
 99
 100
 101
 102
 103
 104
 105
 106
 107
 108
 109
 110
 111
 112
 113
 114
 115
 116
 117
 118
 119
 120
 121
 122
 123
 124

