20
54670067
O      0.1866253313   -1.1120896056    0.8022162878
O     -1.3049389677   -0.0189239739   -1.4057478004
O      0.9076734861    2.4008191292    0.2752311569
O     -3.8479481063   -0.2879622950   -0.3114148415
O      3.1085191509    0.5565646957   -0.5157862115
O      2.1024319585   -2.1429823400    0.0389928562
C     -0.2872818190    0.2481210354    0.8117677549
C     -1.5578923807    0.3694483010   -0.0461391830
C      0.8765914205    1.0307087132    0.3143608377
C     -2.6880270590   -0.5120737199    0.4956584407
C      1.8753540816    0.2257856205   -0.0329420471
C      1.4269150954   -1.1475998519    0.2375015961
H     -0.5043347230    0.5176779368    1.8519103502
H     -1.8935088221    1.4126598154   -0.0802433301
H     -2.4389438826   -1.5749568304    0.4193737961
H     -2.9277352149   -0.2593843495    1.5335581686
H     -2.1879261227   -0.1183506917   -1.8163441041
H      0.0071775520    2.7566394481    0.3548056473
H     -4.5456263307   -0.8791720749    0.0256369662
H      3.5650753522   -0.2926289624   -0.6746963411
