%chk=C:\Users\sukes\Downloads\namfinal\Conformer3D_COMPOUND_CID_5462244.chk
# opt freq=raman b3lyp/6-311+g(d,p) geom=connectivity

5462244

0 1
 O                  2.29891042   -0.89811545   -0.14001518
 O                 -1.26076058    0.94496900    1.07759181
 O                  0.88695196    2.50633656    0.03416215
 O                  0.66507923   -1.56146113   -1.67988344
 O                  4.44880331    0.62884294   -1.18228748
 O                 -0.16000136   -3.55442567    1.63683315
 O                 -1.59754024    3.56169521   -1.51944793
 O                 -2.58834214    1.47021865   -1.25108225
 N                 -1.26006942   -1.85235549    0.41735544
 C                 -0.25864472    0.38073597    0.22770660
 C                 -0.01927888   -1.08510332    0.59808455
 C                  1.06229574    1.13495065    0.39947743
 C                  2.12352647    0.48275865   -0.50672816
 C                  1.08438546   -1.65049746   -0.31564195
 C                  3.46060380    1.22852336   -0.34041745
 C                 -1.46541517    2.31635548    0.72785534
 C                 -1.02134395   -3.25982022    0.76800226
 C                 -2.54461686    2.92399109    1.64311633
 C                 -1.92486322    2.40895797   -0.73909124
 C                 -1.82534113   -4.37377594    0.07209195
 H                 -0.58128120    0.44684587   -0.79034801
 H                  0.29313159   -1.15174741    1.61928887
 H                  1.37937036    1.07763028    1.41980976
 H                  1.80571858    0.54119291   -1.52676913
 H                  1.26200616   -2.67473442   -0.06208807
 H                  3.77761370    1.16915326    0.67981778
 H                  3.33318018    2.25476658   -0.61516842
 H                 -1.55354102   -1.79167203   -0.53668436
 H                 -0.54948650    2.85596875    0.84947843
 H                  1.71861443    2.97426401    0.13895450
 H                  1.35125672   -1.91698709   -2.24941110
 H                 -2.22539001    2.85965041    2.66235840
 H                 -2.69774994    3.95013345    1.38142542
 H                 -3.46054557    2.38437780    1.52149322
 H                  4.56312731   -0.29189864   -0.93578197
 H                 -1.93687822   -5.20301135    0.73904628
 H                 -2.79120825   -4.00094872   -0.19809408
 H                 -1.30655831   -4.69135000   -0.80819845
 H                 -2.28201874    3.70828548   -2.17641100

 1 13 1.0 14 1.0
 2 10 1.0 16 1.0
 3 12 1.0 30 1.0
 4 14 1.0 31 1.0
 5 15 1.0 35 1.0
 6 17 2.0
 7 19 1.0 39 1.0
 8 19 2.0
 9 11 1.0 17 1.0 28 1.0
 10 11 1.0 12 1.0 21 1.0
 11 14 1.0 22 1.0
 12 13 1.0 23 1.0
 13 15 1.0 24 1.0
 14 25 1.0
 15 26 1.0 27 1.0
 16 18 1.0 19 1.0 29 1.0
 17 20 1.0
 18 32 1.0 33 1.0 34 1.0
 19
 20 36 1.0 37 1.0 38 1.0
 21
 22
 23
 24
 25
 26
 27
 28
 29
 30
 31
 32
 33
 34
 35
 36
 37
 38
 39

