%nprocshared=16
%mem=56GB
%chk=C:\Users\COMPUTER\Downloads\sukesh\LTA\LTA.chk
# opt freq=raman b3lyp/6-31g(d) scrf=(smd,solvent=water) int=ultrafine
scf=tight

LTA backbone fragment optimization

-2 1
 O                 -7.92010000   -2.34670000    0.06000000
 P                 -6.19010000   -2.34670000    0.06000000
 O                 -6.19010000   -3.25480000    1.32710000
 O                 -6.16730000   -3.64930000   -1.10860000
 O                 -4.46010000   -2.34670000    0.06000000
 C                 -3.93880000   -1.49940000    1.06650000
 C                 -2.65090000   -0.82460000    0.54100000
 O                 -1.75810000   -1.77610000    0.01430000
 C                 -1.93940000    0.04190000    1.60260000
 O                 -1.44290000   -0.78040000    2.63160000
 P                 -0.84420000    0.22060000    3.93940000
 O                 -2.07960000    0.82540000    4.65810000
 O                 -0.05620000   -0.77230000    5.12980000
 O                  0.15980000    1.57090000    3.42330000
 C                  1.52160000    1.32610000    3.71870000
 C                  1.97160000    2.01210000    5.03060000
 O                  1.29970000    1.47120000    6.13900000
 C                  1.82590000    3.54490000    5.00400000
 O                  2.60720000    4.08730000    3.97600000
 H                 -8.23350000   -3.28800000    0.08460000
 H                 -6.00670000   -4.49920000   -0.62330000
 H                 -3.70160000   -2.12060000    1.95690000
 H                 -4.64370000   -0.69080000    1.37050000
 H                 -2.95730000   -0.15870000   -0.29520000
 H                 -1.58410000   -2.45470000    0.71780000
 H                 -2.66860000    0.78900000    1.98950000
 H                 -1.09010000    0.56440000    1.10790000
 H                 -0.61240000   -1.58930000    5.18570000
 H                  2.12550000    1.73150000    2.87940000
 H                  1.77560000    0.24290000    3.74090000
 H                  3.05420000    1.79500000    5.16750000
 H                  0.36980000    1.81910000    6.13350000
 H                  0.76020000    3.82660000    4.85610000
 H                  2.17820000    3.93890000    5.98590000
 H                  2.62140000    5.06840000    4.12770000

